NAME : P132122.56441.tour
COMMENT : Length = 56441
COMMENT : Found by LKH-3 [Keld Helsgaun] Tue Dec 17 14:07:44 2024
TYPE : TOUR
DIMENSION : 190
TOUR_SECTION
1
171
2
39
172
3
173
4
23
22
174
5
175
6
46
176
7
177
8
178
9
35
137
134
143
138
153
145
144
155
157
170
163
167
28
150
161
131
162
135
159
142
169
158
151
147
154
141
148
152
136
146
156
139
168
140
164
149
165
132
133
166
160
31
45
43
27
33
37
30
38
24
40
128
122
108
91
101
99
109
98
103
110
126
129
123
121
100
102
112
118
95
119
97
90
107
105
117
124
96
111
92
120
106
94
104
116
115
127
125
130
88
89
113
114
93
73
29
52
78
66
72
58
67
79
51
57
65
63
87
54
76
83
49
84
61
86
48
59
62
85
60
69
68
71
70
77
53
64
50
26
47
75
56
81
82
21
80
55
74
42
179
10
180
11
25
36
181
12
182
13
183
14
184
15
185
16
186
17
34
187
18
188
19
189
20
44
32
41
190
-1
EOF
